(benchmark gametime
:status unknown
:logic QF_AUFBV
:extrafuns ((gtINDEX58  BitVec[32]))
:extrafuns ((gtFIELD__bitsForTID0__gtAGG____anonstruct_D_Work_4  Array[32:32]))
:extrafuns ((gtINDEX59  BitVec[32]))
:extrafuns ((gtAGG__rtDWork  BitVec[32]))
:extrafuns ((gtINDEX56  BitVec[32]))
:extrafuns ((gtINDEX57  BitVec[32]))
:extrafuns ((gtINDEX54  BitVec[32]))
:extrafuns ((gtINDEX55  BitVec[32]))
:extrafuns ((gtINDEX52  BitVec[32]))
:extrafuns ((gtINDEX53  BitVec[32]))
:extrafuns ((gtINDEX51  BitVec[32]))
:extrafuns ((gtINDEX50  BitVec[32]))
:extrafuns ((gtINDEX49  BitVec[32]))
:extrafuns ((gtINDEX48  BitVec[32]))
:extrafuns ((gtINDEX46  BitVec[32]))
:extrafuns ((gtINDEX47  BitVec[32]))
:extrafuns ((gtINDEX44  BitVec[32]))
:extrafuns ((gtINDEX45  BitVec[32]))
:extrafuns ((gtINDEX42  BitVec[32]))
:extrafuns ((gtINDEX43  BitVec[32]))
:extrafuns ((gtINDEX40  BitVec[32]))
:extrafuns ((gtINDEX41  BitVec[32]))
:extrafuns ((gtINDEX39  BitVec[32]))
:extrafuns ((gtINDEX37  BitVec[32]))
:extrafuns ((gtINDEX38  BitVec[32]))
:extrafuns ((gtINDEX35  BitVec[32]))
:extrafuns ((gtINDEX36  BitVec[32]))
:extrafuns ((gtINDEX33  BitVec[32]))
:extrafuns ((gtINDEX34  BitVec[32]))
:extrafuns ((gtINDEX31  BitVec[32]))
:extrafuns ((gtINDEX32  BitVec[32]))
:extrafuns ((gtINDEX29  BitVec[32]))
:extrafuns ((gtINDEX30  BitVec[32]))
:extrafuns ((gtINDEX27  BitVec[32]))
:extrafuns ((gtINDEX28  BitVec[32]))
:extrafuns ((gtINDEX25  BitVec[32]))
:extrafuns ((gtINDEX26  BitVec[32]))
:extrafuns ((gtINDEX24  BitVec[32]))
:extrafuns ((gtINDEX23  BitVec[32]))
:extrafuns ((gtINDEX21  BitVec[32]))
:extrafuns ((gtINDEX22  BitVec[32]))
:extrafuns ((gtINDEX19  BitVec[32]))
:extrafuns ((gtINDEX20  BitVec[32]))
:extrafuns ((gtINDEX17  BitVec[32]))
:extrafuns ((gtINDEX18  BitVec[32]))
:extrafuns ((gtINDEX15  BitVec[32]))
:extrafuns ((gtINDEX16  BitVec[32]))
:extrafuns ((gtINDEX14  BitVec[32]))
:extrafuns ((gtINDEX12  BitVec[32]))
:extrafuns ((gtINDEX13  BitVec[32]))
:extrafuns ((gtINDEX10  BitVec[32]))
:extrafuns ((gtINDEX11  BitVec[32]))
:extrafuns ((gtINDEX8  BitVec[32]))
:extrafuns ((gtINDEX9  BitVec[32]))
:extrafuns ((gtINDEX6  BitVec[32]))
:extrafuns ((gtINDEX7  BitVec[32]))
:extrafuns ((gtINDEX4  BitVec[32]))
:extrafuns ((gtINDEX5  BitVec[32]))
:extrafuns ((gtINDEX2  BitVec[32]))
:extrafuns ((gtINDEX3  BitVec[32]))
:extrafuns ((gtINDEX0  BitVec[32]))
:extrafuns ((gtINDEX1  BitVec[32]))
:extrafuns ((gtFIELD__is_Eng__gtAGG____anonstruct_bitsForTID0_5_1_  Array[32:1]))
:extrafuns ((gtFIELD__is_Eng__gtAGG____anonstruct_bitsForTID0_5_2_  Array[32:1]))
:extrafuns ((sf_previousEvent_1_  BitVec[32]))
:extrafuns ((sfEvent__2_  BitVec[32]))
:extrafuns ((gtFIELD__is_Eng__gtAGG____anonstruct_bitsForTID0_5  Array[32:1]))
:extrafuns ((gtFIELD__sent__gtAGG____anonstruct_D_Work_4_1_  Array[32:32]))
:extrafuns ((gtFIELD__sent__gtAGG____anonstruct_D_Work_4_2_  Array[32:32]))
:extrafuns ((gtFIELD__is_active_Eng__gtAGG____anonstruct_bitsForTID0_5  Array[32:1]))
:extrafuns ((gtFIELD__is_active_PURI__gtAGG____anonstruct_bitsForTID0_5  Array[32:1]))
:extrafuns ((gtFIELD__is_active_PVRP__gtAGG____anonstruct_bitsForTID0_5  Array[32:1]))
:extrafuns ((gtFIELD__is_PPVARP__gtAGG____anonstruct_bitsForTID0_5  Array[32:2]))
:extrafuns ((gtFIELD__is_active_PPVARP__gtAGG____anonstruct_bitsForTID0_5  Array[32:1]))
:extrafuns ((gtFIELD__is_active_PLRI__gtAGG____anonstruct_bitsForTID0_5  Array[32:1]))
:extrafuns ((sfEvent__1_  BitVec[32]))
:extrafuns ((gtFIELD__is_PAVI__gtAGG____anonstruct_bitsForTID0_5  Array[32:3]))
:extrafuns ((gtFIELD__is_active_PAVI__gtAGG____anonstruct_bitsForTID0_5  Array[32:1]))
:extrafuns ((sfEvent_  BitVec[32]))
:extrafuns ((gtFIELD__sent__gtAGG____anonstruct_D_Work_4  Array[32:32]))
:extrapreds ((constraint102 ))
:extrapreds ((constraint101 ))
:extrapreds ((constraint100 ))
:extrapreds ((constraint99 ))
:extrapreds ((constraint98 ))
:extrapreds ((constraint97 ))
:extrapreds ((constraint96 ))
:extrapreds ((constraint95 ))
:extrapreds ((constraint94 ))
:extrapreds ((constraint93 ))
:extrapreds ((constraint92 ))
:extrapreds ((constraint91 ))
:extrapreds ((constraint90 ))
:extrapreds ((constraint89 ))
:extrapreds ((constraint88 ))
:extrapreds ((constraint87 ))
:extrapreds ((constraint86 ))
:extrapreds ((constraint85 ))
:extrapreds ((constraint84 ))
:extrapreds ((constraint83 ))
:extrapreds ((constraint82 ))
:extrapreds ((constraint81 ))
:extrapreds ((constraint80 ))
:extrapreds ((constraint79 ))
:extrapreds ((constraint78 ))
:extrapreds ((constraint77 ))
:extrapreds ((constraint76 ))
:extrapreds ((constraint75 ))
:extrapreds ((constraint74 ))
:extrapreds ((constraint73 ))
:extrapreds ((constraint72 ))
:extrapreds ((constraint71 ))
:extrapreds ((constraint70 ))
:extrapreds ((constraint69 ))
:extrapreds ((constraint68 ))
:extrapreds ((constraint67 ))
:extrapreds ((constraint66 ))
:extrapreds ((constraint65 ))
:extrapreds ((constraint64 ))
:extrapreds ((constraint63 ))
:extrapreds ((constraint62 ))
:extrapreds ((constraint61 ))
:extrapreds ((constraint60 ))
:extrapreds ((constraint59 ))
:extrapreds ((constraint58 ))
:extrapreds ((constraint57 ))
:extrapreds ((constraint56 ))
:extrapreds ((constraint55 ))
:extrapreds ((constraint54 ))
:extrapreds ((constraint53 ))
:extrapreds ((constraint52 ))
:extrapreds ((constraint51 ))
:extrapreds ((constraint50 ))
:extrapreds ((constraint49 ))
:extrapreds ((constraint48 ))
:extrapreds ((constraint47 ))
:extrapreds ((constraint46 ))
:extrapreds ((constraint45 ))
:extrapreds ((constraint44 ))
:extrapreds ((constraint43 ))
:extrapreds ((constraint42 ))
:extrapreds ((constraint41 ))
:extrapreds ((constraint40 ))
:extrapreds ((constraint39 ))
:extrapreds ((constraint38 ))
:extrapreds ((constraint37 ))
:extrapreds ((constraint36 ))
:extrapreds ((constraint35 ))
:extrapreds ((constraint34 ))
:extrapreds ((constraint33 ))
:extrapreds ((constraint32 ))
:extrapreds ((constraint31 ))
:extrapreds ((constraint30 ))
:extrapreds ((constraint29 ))
:extrapreds ((constraint28 ))
:extrapreds ((constraint27 ))
:extrapreds ((constraint26 ))
:extrapreds ((constraint25 ))
:extrapreds ((constraint24 ))
:extrapreds ((constraint23 ))
:extrapreds ((constraint22 ))
:extrapreds ((constraint21 ))
:extrapreds ((constraint20 ))
:extrapreds ((constraint19 ))
:extrapreds ((constraint18 ))
:extrapreds ((constraint17 ))
:extrapreds ((constraint16 ))
:extrapreds ((constraint15 ))
:extrapreds ((constraint14 ))
:extrapreds ((constraint13 ))
:extrapreds ((constraint12 ))
:extrapreds ((constraint11 ))
:extrapreds ((constraint10 ))
:extrapreds ((constraint9 ))
:extrapreds ((constraint8 ))
:extrapreds ((constraint7 ))
:extrapreds ((constraint6 ))
:extrapreds ((constraint5 ))
:extrapreds ((constraint4 ))
:extrapreds ((constraint3 ))
:extrapreds ((constraint2 ))
:extrapreds ((constraint1 ))
:extrapreds ((constraint0 ))
:formula
(flet ($x539 (and constraint0 constraint1 constraint2 constraint3 constraint4 constraint5 constraint6 constraint7 constraint8 constraint9 constraint10 constraint11 constraint12 constraint13 constraint14 constraint15 constraint16 constraint17 constraint18 constraint19 constraint20 constraint21 constraint22 constraint23 constraint24 constraint25 constraint26 constraint27 constraint28 constraint29 constraint30 constraint31 constraint32 constraint33 constraint34 constraint35 constraint36 constraint37 constraint38 constraint39 constraint40 constraint41 constraint42 constraint43 constraint44 constraint45 constraint46 constraint47 constraint48 constraint49 constraint50 constraint51 constraint52 constraint53 constraint54 constraint55 constraint56 constraint57 constraint58 constraint59 constraint60 constraint61 constraint62 constraint63 constraint64 constraint65 constraint66 constraint67 constraint68 constraint69 constraint70 constraint71 constraint72 constraint73 constraint74 constraint75 constraint76 constraint77 constraint78 constraint79 constraint80 constraint81 constraint82 constraint83 constraint84 constraint85 constraint86 constraint87 constraint88 constraint89 constraint90 constraint91 constraint92 constraint93 constraint94 constraint95 constraint96 constraint97 constraint98 constraint99 constraint100 constraint101 constraint102))
(flet ($x331 (= gtINDEX59 (select gtFIELD__bitsForTID0__gtAGG____anonstruct_D_Work_4 gtINDEX58)))
(flet ($x327 (= gtINDEX57 (select gtFIELD__bitsForTID0__gtAGG____anonstruct_D_Work_4 gtINDEX56)))
(flet ($x323 (= gtINDEX55 (select gtFIELD__bitsForTID0__gtAGG____anonstruct_D_Work_4 gtINDEX54)))
(flet ($x319 (= gtINDEX53 (select gtFIELD__bitsForTID0__gtAGG____anonstruct_D_Work_4 gtINDEX52)))
(flet ($x311 (= gtINDEX47 (select gtFIELD__bitsForTID0__gtAGG____anonstruct_D_Work_4 gtINDEX46)))
(flet ($x307 (= gtINDEX45 (select gtFIELD__bitsForTID0__gtAGG____anonstruct_D_Work_4 gtINDEX44)))
(flet ($x303 (= gtINDEX43 (select gtFIELD__bitsForTID0__gtAGG____anonstruct_D_Work_4 gtINDEX42)))
(flet ($x299 (= gtINDEX41 (select gtFIELD__bitsForTID0__gtAGG____anonstruct_D_Work_4 gtINDEX40)))
(flet ($x294 (= gtINDEX38 (select gtFIELD__bitsForTID0__gtAGG____anonstruct_D_Work_4 gtINDEX37)))
(flet ($x290 (= gtINDEX36 (select gtFIELD__bitsForTID0__gtAGG____anonstruct_D_Work_4 gtINDEX35)))
(flet ($x286 (= gtINDEX34 (select gtFIELD__bitsForTID0__gtAGG____anonstruct_D_Work_4 gtINDEX33)))
(flet ($x282 (= gtINDEX32 (select gtFIELD__bitsForTID0__gtAGG____anonstruct_D_Work_4 gtINDEX31)))
(flet ($x278 (= gtINDEX30 (select gtFIELD__bitsForTID0__gtAGG____anonstruct_D_Work_4 gtINDEX29)))
(flet ($x274 (= gtINDEX28 (select gtFIELD__bitsForTID0__gtAGG____anonstruct_D_Work_4 gtINDEX27)))
(flet ($x270 (= gtINDEX26 (select gtFIELD__bitsForTID0__gtAGG____anonstruct_D_Work_4 gtINDEX25)))
(flet ($x264 (= gtINDEX22 (select gtFIELD__bitsForTID0__gtAGG____anonstruct_D_Work_4 gtINDEX21)))
(flet ($x260 (= gtINDEX20 (select gtFIELD__bitsForTID0__gtAGG____anonstruct_D_Work_4 gtINDEX19)))
(flet ($x256 (= gtINDEX18 (select gtFIELD__bitsForTID0__gtAGG____anonstruct_D_Work_4 gtINDEX17)))
(flet ($x252 (= gtINDEX16 (select gtFIELD__bitsForTID0__gtAGG____anonstruct_D_Work_4 gtINDEX15)))
(flet ($x247 (= gtINDEX13 (select gtFIELD__bitsForTID0__gtAGG____anonstruct_D_Work_4 gtINDEX12)))
(flet ($x243 (= gtINDEX11 (select gtFIELD__bitsForTID0__gtAGG____anonstruct_D_Work_4 gtINDEX10)))
(flet ($x239 (= gtINDEX9 (select gtFIELD__bitsForTID0__gtAGG____anonstruct_D_Work_4 gtINDEX8)))
(flet ($x235 (= gtINDEX7 (select gtFIELD__bitsForTID0__gtAGG____anonstruct_D_Work_4 gtINDEX6)))
(flet ($x231 (= gtINDEX5 (select gtFIELD__bitsForTID0__gtAGG____anonstruct_D_Work_4 gtINDEX4)))
(flet ($x227 (= gtINDEX3 (select gtFIELD__bitsForTID0__gtAGG____anonstruct_D_Work_4 gtINDEX2)))
(flet ($x223 (= gtINDEX1 (select gtFIELD__bitsForTID0__gtAGG____anonstruct_D_Work_4 gtINDEX0)))
(let (?x207 (extract[0:0] bv1[32]))
(let (?x217 (store gtFIELD__is_Eng__gtAGG____anonstruct_bitsForTID0_5_1_ gtINDEX59 ?x207))
(flet ($x417 (iff constraint42 (= gtFIELD__is_Eng__gtAGG____anonstruct_bitsForTID0_5_2_ ?x217)))
(let (?x213 (select gtFIELD__is_Eng__gtAGG____anonstruct_bitsForTID0_5_1_ gtINDEX57))
(let (?x208 (store gtFIELD__is_Eng__gtAGG____anonstruct_bitsForTID0_5 gtINDEX55 ?x207))
(flet ($x411 (iff constraint39 (= gtFIELD__is_Eng__gtAGG____anonstruct_bitsForTID0_5_1_ ?x208)))
(let (?x204 (zero_extend[31] (select gtFIELD__is_Eng__gtAGG____anonstruct_bitsForTID0_5 gtINDEX53)))
(let (?x200 (store gtFIELD__sent__gtAGG____anonstruct_D_Work_4_1_ gtINDEX51 bv0[32]))
(flet ($x407 (iff constraint37 (= gtFIELD__sent__gtAGG____anonstruct_D_Work_4_2_ ?x200)))
(let (?x114 (bvmul bv4294967295[32] bv1[32]))
(flet ($x198 (= (select gtFIELD__sent__gtAGG____anonstruct_D_Work_4_1_ gtINDEX50) ?x114))
(flet ($x194 (= (select gtFIELD__sent__gtAGG____anonstruct_D_Work_4_1_ gtINDEX49) bv9[32]))
(flet ($x189 (= (select gtFIELD__sent__gtAGG____anonstruct_D_Work_4_1_ gtINDEX48) bv4[32]))
(let (?x185 (zero_extend[31] (select gtFIELD__is_Eng__gtAGG____anonstruct_bitsForTID0_5 gtINDEX47)))
(let (?x179 (select gtFIELD__is_active_Eng__gtAGG____anonstruct_bitsForTID0_5 gtINDEX45))
(let (?x173 (select gtFIELD__is_active_PURI__gtAGG____anonstruct_bitsForTID0_5 gtINDEX43))
(let (?x167 (select gtFIELD__is_active_PVRP__gtAGG____anonstruct_bitsForTID0_5 gtINDEX41))
(flet ($x164 (= (select gtFIELD__sent__gtAGG____anonstruct_D_Work_4_1_ gtINDEX39) bv0[32]))
(let (?x159 (select gtFIELD__is_PPVARP__gtAGG____anonstruct_bitsForTID0_5 gtINDEX38))
(let (?x154 (select gtFIELD__is_PPVARP__gtAGG____anonstruct_bitsForTID0_5 gtINDEX36))
(let (?x149 (select gtFIELD__is_PPVARP__gtAGG____anonstruct_bitsForTID0_5 gtINDEX34))
(let (?x144 (select gtFIELD__is_active_PPVARP__gtAGG____anonstruct_bitsForTID0_5 gtINDEX32))
(let (?x138 (select gtFIELD__is_active_PLRI__gtAGG____anonstruct_bitsForTID0_5 gtINDEX30))
(let (?x130 (select gtFIELD__is_PAVI__gtAGG____anonstruct_bitsForTID0_5 gtINDEX28))
(let (?x125 (select gtFIELD__is_active_PAVI__gtAGG____anonstruct_bitsForTID0_5 gtINDEX26))
(flet ($x116 (= gtFIELD__sent__gtAGG____anonstruct_D_Work_4_1_ (store gtFIELD__sent__gtAGG____anonstruct_D_Work_4 gtINDEX24 ?x114)))
(flet ($x111 (= (select gtFIELD__sent__gtAGG____anonstruct_D_Work_4 gtINDEX23) bv4[32]))
(let (?x106 (zero_extend[31] (select gtFIELD__is_Eng__gtAGG____anonstruct_bitsForTID0_5 gtINDEX22)))
(let (?x100 (select gtFIELD__is_active_Eng__gtAGG____anonstruct_bitsForTID0_5 gtINDEX20))
(let (?x94 (select gtFIELD__is_active_PURI__gtAGG____anonstruct_bitsForTID0_5 gtINDEX18))
(let (?x88 (select gtFIELD__is_active_PVRP__gtAGG____anonstruct_bitsForTID0_5 gtINDEX16))
(flet ($x85 (= (select gtFIELD__sent__gtAGG____anonstruct_D_Work_4 gtINDEX14) bv0[32]))
(let (?x80 (select gtFIELD__is_PPVARP__gtAGG____anonstruct_bitsForTID0_5 gtINDEX13))
(let (?x75 (select gtFIELD__is_PPVARP__gtAGG____anonstruct_bitsForTID0_5 gtINDEX11))
(let (?x70 (select gtFIELD__is_PPVARP__gtAGG____anonstruct_bitsForTID0_5 gtINDEX9))
(let (?x65 (select gtFIELD__is_active_PPVARP__gtAGG____anonstruct_bitsForTID0_5 gtINDEX7))
(let (?x59 (select gtFIELD__is_active_PLRI__gtAGG____anonstruct_bitsForTID0_5 gtINDEX5))
(let (?x49 (zero_extend[29] (select gtFIELD__is_PAVI__gtAGG____anonstruct_bitsForTID0_5 gtINDEX3)))
(let (?x42 (select gtFIELD__is_active_PAVI__gtAGG____anonstruct_bitsForTID0_5 gtINDEX1))
(flet ($x538 (and (iff constraint0 (not (= sfEvent_ bv8[32]))) (iff constraint1 (not (= (zero_extend[31] ?x42) bv0[32]))) (iff constraint2 (= ?x49 bv1[32])) (iff constraint3 (not (= sfEvent_ bv2[32]))) (iff constraint4 (not (= sfEvent_ bv3[32]))) (iff constraint5 (not (not (= (zero_extend[31] ?x59) bv0[32])))) (iff constraint6 (not (= (zero_extend[31] ?x65) bv0[32]))) (iff constraint7 (not (= (zero_extend[30] ?x70) bv1[32]))) (iff constraint8 (not (= (zero_extend[30] ?x75) bv2[32]))) (iff constraint9 (= (zero_extend[30] ?x80) bv3[32])) (iff constraint10 (not $x85)) (iff constraint11 (not (not (= (zero_extend[31] ?x88) bv0[32])))) (iff constraint12 (not (not (= (zero_extend[31] ?x94) bv0[32])))) (iff constraint13 (not (= (zero_extend[31] ?x100) bv0[32]))) (iff constraint14 (= ?x106 bv1[32])) (iff constraint15 $x111) (iff constraint16 $x116) (iff constraint17 (= sf_previousEvent_1_ sfEvent_)) (iff constraint18 (= sfEvent__1_ bv5[32])) (iff constraint19 (not (= sfEvent__1_ bv8[32]))) (iff constraint20 (not (= (zero_extend[31] ?x125) bv0[32]))) (iff constraint21 (= (zero_extend[29] ?x130) bv1[32])) (iff constraint22 (not (= sfEvent__1_ bv2[32]))) (iff constraint23 (not (= sfEvent__1_ bv3[32]))) (iff constraint24 (not (not (= (zero_extend[31] ?x138) bv0[32])))) (iff constraint25 (not (= (zero_extend[31] ?x144) bv0[32]))) (iff constraint26 (not (= (zero_extend[30] ?x149) bv1[32]))) (iff constraint27 (not (= (zero_extend[30] ?x154) bv2[32]))) (iff constraint28 (= (zero_extend[30] ?x159) bv3[32])) (iff constraint29 (not $x164)) (iff constraint30 (not (not (= (zero_extend[31] ?x167) bv0[32])))) (iff constraint31 (not (not (= (zero_extend[31] ?x173) bv0[32])))) (iff constraint32 (not (= (zero_extend[31] ?x179) bv0[32]))) (iff constraint33 (= ?x185 bv1[32])) (iff constraint34 (not $x189)) (iff constraint35 (not $x194)) (iff constraint36 $x198) $x407 (iff constraint38 (= ?x204 bv1[32])) $x411 (iff constraint40 (= sfEvent__2_ sf_previousEvent_1_)) (iff constraint41 (= (zero_extend[31] ?x213) bv1[32])) $x417 (iff constraint43 (= gtINDEX0 gtAGG__rtDWork)) (iff constraint44 $x223) (iff constraint45 (= gtINDEX2 gtAGG__rtDWork)) (iff constraint46 $x227) (iff constraint47 (= gtINDEX4 gtAGG__rtDWork)) (iff constraint48 $x231) (iff constraint49 (= gtINDEX6 gtAGG__rtDWork)) (iff constraint50 $x235) (iff constraint51 (= gtINDEX8 gtAGG__rtDWork)) (iff constraint52 $x239) (iff constraint53 (= gtINDEX10 gtAGG__rtDWork)) (iff constraint54 $x243) (iff constraint55 (= gtINDEX12 gtAGG__rtDWork)) (iff constraint56 $x247) (iff constraint57 (= gtINDEX14 gtAGG__rtDWork)) (iff constraint58 (= gtINDEX15 gtAGG__rtDWork)) (iff constraint59 $x252) (iff constraint60 (= gtINDEX17 gtAGG__rtDWork)) (iff constraint61 $x256) (iff constraint62 (= gtINDEX19 gtAGG__rtDWork)) (iff constraint63 $x260) (iff constraint64 (= gtINDEX21 gtAGG__rtDWork)) (iff constraint65 $x264) (iff constraint66 (= gtINDEX23 gtAGG__rtDWork)) (iff constraint67 (= gtINDEX24 gtAGG__rtDWork)) (iff constraint68 (= gtINDEX25 gtAGG__rtDWork)) (iff constraint69 $x270) (iff constraint70 (= gtINDEX27 gtAGG__rtDWork)) (iff constraint71 $x274) (iff constraint72 (= gtINDEX29 gtAGG__rtDWork)) (iff constraint73 $x278) (iff constraint74 (= gtINDEX31 gtAGG__rtDWork)) (iff constraint75 $x282) (iff constraint76 (= gtINDEX33 gtAGG__rtDWork)) (iff constraint77 $x286) (iff constraint78 (= gtINDEX35 gtAGG__rtDWork)) (iff constraint79 $x290) (iff constraint80 (= gtINDEX37 gtAGG__rtDWork)) (iff constraint81 $x294) (iff constraint82 (= gtINDEX39 gtAGG__rtDWork)) (iff constraint83 (= gtINDEX40 gtAGG__rtDWork)) (iff constraint84 $x299) (iff constraint85 (= gtINDEX42 gtAGG__rtDWork)) (iff constraint86 $x303) (iff constraint87 (= gtINDEX44 gtAGG__rtDWork)) (iff constraint88 $x307) (iff constraint89 (= gtINDEX46 gtAGG__rtDWork)) (iff constraint90 $x311) (iff constraint91 (= gtINDEX48 gtAGG__rtDWork)) (iff constraint92 (= gtINDEX49 gtAGG__rtDWork)) (iff constraint93 (= gtINDEX50 gtAGG__rtDWork)) (iff constraint94 (= gtINDEX51 gtAGG__rtDWork)) (iff constraint95 (= gtINDEX52 gtAGG__rtDWork)) (iff constraint96 $x319) (iff constraint97 (= gtINDEX54 gtAGG__rtDWork)) (iff constraint98 $x323) (iff constraint99 (= gtINDEX56 gtAGG__rtDWork)) (iff constraint100 $x327) (iff constraint101 (= gtINDEX58 gtAGG__rtDWork)) (iff constraint102 $x331)))
(and $x538 $x539))))))))))))))))))))))))))))))))))))))))))))))))))))))))))))))))))))
)
